SDVRP instances/custom_instances/p02_3_splitx10_0.vrp
NAME:p02_3_splitx10_
BEST_KNOWN: 0
COMMENT: 0
DIMENSION: 373
CAPACITY: 1400
EDGE_WEIGHT_FORMAT: FUNCTION
EDGE_WEIGHT_TYPE: EXACT_2D
NODE_COORD_SECTION
1 0.00000 0.00000
2 19 49
3 19 49
4 19 49
5 19 49
6 19 49
7 -36 21
8 -36 21
9 -36 21
10 -36 21
11 -36 21
12 -24 5
13 -24 5
14 -24 5
15 -24 5
16 -19 20
17 -19 20
18 -19 20
19 -19 20
20 -19 20
21 -18 -40
22 -18 -40
23 -18 -40
24 -18 -40
25 -18 -40
26 -18 -40
27 -49 -40
28 -49 -40
29 -49 -40
30 -49 -40
31 -49 -40
32 -49 -40
33 -25 -39
34 -25 -39
35 -25 -39
36 -25 -39
37 -46 -41
38 -46 -41
39 -46 -41
40 -46 -41
41 39 15
42 39 15
43 39 15
44 39 15
45 39 15
46 39 15
47 -7 -37
48 -7 -37
49 -7 -37
50 -7 -37
51 -31 -20
52 -31 -20
53 -31 -20
54 -31 -20
55 -31 -20
56 0 -37
57 0 -37
58 0 -37
59 0 -37
60 0 -37
61 0 -37
62 -44 -39
63 -44 -39
64 -44 -39
65 -44 -39
66 -44 -39
67 -44 -39
68 -44 -39
69 -2 8
70 -2 8
71 -2 8
72 -2 8
73 -2 8
74 -2 8
75 -2 8
76 -2 8
77 -46 21
78 -46 21
79 -46 21
80 -46 21
81 -3 -15
82 -3 -15
83 -19 -48
84 -19 -48
85 -19 -48
86 -19 -48
87 -19 -48
88 -19 -48
89 16 33
90 16 33
91 16 33
92 16 33
93 16 33
94 16 33
95 -41 27
96 -41 27
97 -41 27
98 -41 27
99 -41 27
100 -41 27
101 7 -26
102 7 -26
103 7 -26
104 7 -26
105 7 -26
106 -38 50
107 -38 50
108 -42 44
109 -42 44
110 -42 44
111 -42 44
112 -42 44
113 -9 7
114 -9 7
115 -46 -37
116 -46 -37
117 -46 -37
118 -46 -37
119 -46 -37
120 -46 -37
121 27 -47
122 27 -47
123 27 -47
124 27 -47
125 27 -47
126 27 -47
127 -13 -27
128 -13 -27
129 -13 -27
130 -13 -27
131 -11 -30
132 -11 -30
133 -11 -30
134 -11 -30
135 -11 -30
136 -11 -30
137 -26 -38
138 -26 -38
139 -26 -38
140 -26 -38
141 -26 -38
142 -9 -17
143 -9 -17
144 -9 -17
145 -9 -17
146 -9 -17
147 -9 -17
148 -6 5
149 -6 5
150 11 10
151 11 10
152 11 10
153 11 10
154 11 10
155 11 10
156 46 -44
157 46 -44
158 46 -44
159 46 -44
160 6 -10
161 6 -10
162 6 -10
163 6 -10
164 6 -10
165 -18 -29
166 -18 -29
167 -18 -29
168 47 2
169 28 -22
170 28 -22
171 28 -22
172 28 -22
173 28 -22
174 28 -22
175 28 -22
176 -2 -12
177 -2 -12
178 -37 2
179 -37 2
180 -37 2
181 -37 2
182 46 -33
183 46 -33
184 46 -33
185 46 -33
186 46 -33
187 46 -33
188 46 -33
189 46 -33
190 -46 6
191 -46 6
192 -46 6
193 -46 6
194 -46 6
195 -46 6
196 -46 6
197 -20 44
198 -20 44
199 -20 44
200 -20 44
201 -20 44
202 -9 -41
203 -9 -41
204 -9 -41
205 -9 -41
206 -9 -41
207 -9 -41
208 -9 -41
209 -42 48
210 -42 48
211 -42 48
212 -42 48
213 -42 48
214 -37 13
215 -37 13
216 -37 13
217 -37 13
218 -37 13
219 -37 13
220 35 -32
221 35 -32
222 35 -32
223 35 -32
224 35 -32
225 35 -32
226 34 -17
227 34 -17
228 34 -17
229 34 -17
230 34 -17
231 34 -17
232 34 -17
233 -30 6
234 -30 6
235 -30 6
236 -30 6
237 21 -9
238 21 -9
239 21 -9
240 21 -9
241 21 -9
242 2 41
243 2 41
244 2 41
245 2 41
246 -32 21
247 -32 21
248 -32 21
249 -32 21
250 -32 21
251 -32 21
252 -32 21
253 -41 32
254 -41 32
255 -41 32
256 -41 32
257 -41 32
258 -41 32
259 -1 -26
260 -1 -26
261 -1 -26
262 -1 -26
263 -1 -26
264 -16 5
265 -16 5
266 -16 5
267 -16 5
268 22 -27
269 22 -27
270 22 -27
271 22 -27
272 22 -27
273 22 -27
274 -21 -34
275 -21 -34
276 -21 -34
277 -21 -34
278 -21 -34
279 -21 -34
280 -21 -34
281 -40 -13
282 -40 -13
283 -40 -13
284 -40 -13
285 -40 -13
286 13 0
287 13 0
288 13 0
289 13 0
290 13 0
291 13 0
292 36 22
293 36 22
294 36 22
295 36 22
296 36 22
297 36 22
298 -10 -8
299 -10 -8
300 -10 -8
301 -10 -8
302 -15 43
303 -15 43
304 -15 43
305 -15 43
306 -15 43
307 -15 43
308 45 43
309 45 43
310 45 43
311 -3 -43
312 -3 -43
313 -3 -43
314 -3 -43
315 -3 -43
316 -3 -43
317 -4 8
318 -4 8
319 -4 8
320 -4 8
321 -4 8
322 -4 8
323 -25 -18
324 -13 -15
325 -13 -15
326 -13 -15
327 9 -37
328 9 -37
329 9 -37
330 -50 -36
331 -50 -36
332 -50 -36
333 -50 -36
334 -50 -36
335 16 -34
336 16 -34
337 16 -34
338 -37 28
339 -37 28
340 -37 28
341 -37 28
342 22 14
343 22 14
344 22 14
345 22 14
346 22 14
347 27 27
348 27 27
349 27 27
350 27 27
351 12 32
352 12 32
353 12 32
354 12 32
355 12 32
356 12 32
357 23 10
358 23 10
359 23 10
360 23 10
361 23 10
362 23 10
363 24 7
364 24 7
365 24 7
366 24 7
367 24 7
368 24 7
369 24 7
370 0 30
371 0 30
372 0 30
373 0 30
DEMAND_SECTION
1 0
2 140
3 14
4 14
5 14
6 8
7 280
8 70
9 14
10 14
11 2
12 280
13 140
14 70
15 10
16 280
17 140
18 14
19 14
20 2
21 280
22 70
23 14
24 14
25 14
26 8
27 280
28 280
29 70
30 14
31 14
32 2
33 280
34 140
35 70
36 10
37 280
38 140
39 14
40 6
41 280
42 280
43 14
44 14
45 14
46 8
47 280
48 70
49 14
50 6
51 280
52 14
53 14
54 14
55 8
56 140
57 70
58 14
59 14
60 14
61 8
62 280
63 280
64 70
65 14
66 14
67 14
68 8
69 280
70 280
71 70
72 14
73 14
74 14
75 14
76 4
77 280
78 14
79 14
80 2
81 280
82 280
83 140
84 70
85 14
86 14
87 14
88 8
89 140
90 70
91 14
92 14
93 14
94 8
95 280
96 14
97 14
98 14
99 14
100 4
101 140
102 14
103 14
104 14
105 8
106 280
107 70
108 280
109 280
110 70
111 14
112 6
113 280
114 10
115 280
116 140
117 70
118 14
119 14
120 2
121 280
122 14
123 14
124 14
125 14
126 4
127 280
128 280
129 70
130 10
131 140
132 14
133 14
134 14
135 14
136 4
137 280
138 70
139 14
140 14
141 12
142 280
143 280
144 14
145 14
146 14
147 8
148 280
149 140
150 280
151 280
152 70
153 14
154 14
155 12
156 140
157 70
158 14
159 6
160 140
161 70
162 14
163 14
164 2
165 280
166 140
167 10
168 280
169 280
170 70
171 14
172 14
173 14
174 14
175 4
176 280
177 10
178 280
179 140
180 70
181 10
182 280
183 140
184 70
185 14
186 14
187 14
188 14
189 4
190 280
191 140
192 70
193 14
194 14
195 14
196 8
197 280
198 280
199 14
200 14
201 12
202 280
203 70
204 14
205 14
206 14
207 14
208 4
209 280
210 70
211 14
212 14
213 2
214 280
215 70
216 14
217 14
218 14
219 8
220 280
221 140
222 14
223 14
224 14
225 8
226 280
227 280
228 70
229 14
230 14
231 14
232 8
233 280
234 70
235 14
236 6
237 280
238 280
239 14
240 14
241 12
242 280
243 140
244 70
245 10
246 280
247 140
248 14
249 14
250 14
251 14
252 4
253 280
254 280
255 70
256 14
257 14
258 2
259 280
260 140
261 70
262 14
263 6
264 280
265 280
266 70
267 10
268 280
269 14
270 14
271 14
272 14
273 4
274 280
275 280
276 70
277 14
278 14
279 14
280 8
281 280
282 140
283 70
284 14
285 6
286 280
287 280
288 70
289 14
290 14
291 2
292 140
293 70
294 14
295 14
296 14
297 8
298 280
299 140
300 14
301 6
302 280
303 140
304 14
305 14
306 14
307 8
308 280
309 70
310 10
311 280
312 140
313 70
314 14
315 14
316 2
317 280
318 280
319 70
320 14
321 14
322 12
323 280
324 280
325 14
326 6
327 280
328 280
329 70
330 140
331 14
332 14
333 14
334 8
335 280
336 70
337 10
338 280
339 280
340 14
341 6
342 280
343 280
344 14
345 14
346 12
347 280
348 140
349 14
350 6
351 280
352 70
353 14
354 14
355 14
356 8
357 280
358 280
359 70
360 14
361 14
362 2
363 280
364 70
365 14
366 14
367 14
368 14
369 4
370 280
371 140
372 14
373 6
DEPOT_SECTION
1
-1
EOF