SDVRP instances/custom_instances/p02_3_splitx10_0.sol
372 -10 7 9 6 8 338 339 337 340 246 245 249 -11 12 13 265 264 263 112 -14 235 232 234 180 192 194 189 195 190 193 191 218 217 213 215 214 17 16 -15 19 18 196 198 199 197 200 301 304 305 303 302 306 -36 39 37 38 65 62 61 66 64 67 63 322 -47 49 201 202 204 207 206 205 203 84 87 85 86 83 82 25 22 24 20 21 23 131 132 135 130 133 134 -48 46 311 314 310 313 312 315 60 58 57 59 56 55 104 100 103 161 159 -50 52 53 54 51 283 284 280 281 282 177 179 178 233 -70 71 69 68 74 75 73 72 151 149 152 153 150 154 -91 92 90 88 89 93 3 2 4 5 1 307 309 308 294 295 291 292 342 345 343 -102 101 327 326 328 123 121 120 122 124 125 334 335 336 163 162 -105 106 212 208 209 211 210 108 111 107 109 110 -113 248 251 250 247 257 255 256 252 253 254 98 94 99 97 96 95 76 77 78 79 216 266 -114 118 115 119 117 116 28 27 31 29 30 26 331 330 332 329 333 -127 129 279 275 277 276 274 273 278 165 166 164 -128 126 35 33 32 34 137 140 139 136 138 325 324 -143 142 144 145 146 141 323 298 300 299 297 -148 147 320 317 318 319 316 321 -160 267 271 269 270 268 272 168 229 227 231 228 226 225 230 -171 174 173 170 169 172 186 182 185 181 184 183 188 187 156 157 155 158 219 220 222 223 221 224 -176 175 81 80 262 261 258 259 260 -240 238 239 237 236 287 285 286 -289 288 290 167 42 41 43 44 45 40 293 296 349 347 348 346 -344 341 361 358 360 357 356 359 362 366 363 368 365 364 367 -353 352 354 355 351 350 242 244 241 243 369 370 372 371 0 





OBJ=
2278.368
BEST_KNOWN=
0.000